lbl,CUST NO.,READY TIME,XCOORD.,YCOORD.,DEMAND,DUE DATE,SERVICE TIME
6,20,0,103,69,30,1228,90
6,41,0,109,71,20,1222,90
6,77,0,110,66,10,1221,90
6,80,0,113,71,10,1218,90
6,85,0,112,71,20,1219,90
6,172,0,111,66,20,1220,90
6,31,370,113,69,20,440,90
6,25,462,112,67,10,534,90
6,110,748,107,63,30,800,90
6,162,840,102,60,30,900,90
